100
128
56
1
2
33
3
46
58
64
8
44
2
21
61
49
6
40
1
8
27
9
34
28
51
11
40
18
45
36
45
43
1
15
43
13
53
47
18
63
42
36
55
13
15
23
37
30
58
38
17
63
24
53
56
59
36
19
46
1
50
7
17
20
9
44
16
16
2
58
10
1
21
36
25
25
46
50
17
59
2
42
41
24
1
8
30
37
4
24
8
26
22
45
5
26
36
40
5
24
21
60